NAME : portcgen-21-20
COMMENT : portcgen N=21, seed=20
TYPE : TSP
DIMENSION : 21
EDGE_WEIGHT_TYPE : EUC_2D
NODE_COORD_SECTION
1 316986 -90089
2 -125011 -23884
3 -599601 246415
4 180960 40011
5 109857 429994
6 -101503 -263812
7 4388 10300
8 -62236 -841006
9 109451 223481
10 137394 -123532
11 -138109 29429
12 89614 -156930
13 -230545 -129646
14 -159785 89217
15 451601 -419445
16 124329 -182759
17 191873 181999
18 75632 154825
19 -101260 -239082
20 139090 -203629
21 -122538 217224
